(set-logic QF_S)
(declare-const x String)
(assert (str.in.re x (re.inter (re.*  (re.++ (re.opt  (re.union  (re.union  (str.to.re "\u{2b}") (re.union  (str.to.re "\u{2d}")  (str.to.re "\u{2e}"))) (re.+  (str.to.re "\u{5f}") )) ) (re.+  (re.union (re.range "\u{30}" "\u{39}") (re.range "\u{61}" "\u{7a}")) )) ) (re.+  (re.union (re.range "\u{30}" "\u{39}") (re.range "\u{61}" "\u{7a}")) ) )))
(check-sat)
(get-model)